# Solution for model GasLib-40
# Objective value = 1.3739653335229688e+01
loadshed[innode_1] 0
loadshed[innode_2] 0
loadshed[innode_3] 0
loadshed[innode_4] 0
loadshed[innode_5] 0
loadshed[innode_6] 0
loadshed[innode_7] 0
loadshed[innode_8] 0
loadshed[source_1] -2.0801510864670658e-01
loadshed[source_2] -3.8332129596689857e-02
loadshed[source_3] 3.3325741088877670e-01
loadshed[sink_1] 0
loadshed[sink_2] 0
loadshed[sink_3] 0
loadshed[sink_4] 0
loadshed[sink_5] 0
loadshed[sink_6] 0
loadshed[sink_7] 0
loadshed[sink_8] 0
loadshed[sink_9] 0
loadshed[sink_10] 0
loadshed[sink_11] 0
loadshed[sink_12] 8.4013166890576430e-01
loadshed[sink_13] 0
loadshed[sink_14] 0
loadshed[sink_15] 0
loadshed[sink_16] 0
loadshed[sink_17] 0
loadshed[sink_18] 0
loadshed[sink_19] 0
loadshed[sink_20] 0
loadshed[sink_21] 0
loadshed[sink_22] 0
loadshed[sink_23] 0
loadshed[sink_24] 0
loadshed[sink_25] 0
loadshed[sink_26] 0
loadshed[sink_27] 0
loadshed[sink_28] 0
loadshed[sink_29] 0
flow[source_1,sink_3] 1.9097544408571025e+02
flow[innode_1,sink_16] 1.6354166666666970e+01
flow[innode_6,sink_13] 9.0736455477988667e+00
flow[sink_13,sink_14] -7.2805211188678012e+00
flow[sink_14,sink_10] -2.3634687785534652e+01
flow[sink_25,sink_26] 2.3157284666477196e+02
flow[sink_26,sink_9] 1.3154353984695339e+02
flow[sink_9,sink_18] 1.1518937318028672e+02
flow[sink_26,sink_4] 8.3675140151151766e+01
flow[sink_4,sink_20] 0
flow[sink_18,sink_6] 9.8835206513620051e+01
flow[sink_25,innode_8] -1.5826711075237390e+02
flow[sink_6,sink_7] 4.9772706513619596e+01
flow[sink_6,sink_22] 3.2708333333333641e+01
flow[sink_7,sink_24] 3.5322846664770317e+01
flow[sink_22,sink_1] 1.6354166666666970e+01
flow[sink_24,sink_21] 1.8968679998103649e+01
flow[sink_21,sink_12] 2.6145133314369811e+00
flow[sink_7,sink_5] -1.9043068178168454e+00
flow[sink_5,sink_17] -1.8258473484483488e+01
flow[sink_17,sink_4] -67.3209734844852
flow[sink_17,sink_8] 3.2708333333334949e+01
flow[sink_3,sink_23] 16.3541666666697
flow[sink_8,sink_20] 1.6354166666668277e+01
flow[sink_25,sink_20] 0
flow[sink_25,sink_15] -9.8733548126864378e+01
flow[sink_15,sink_29] -64.0028970080718
flow[sink_29,sink_28] 1.6354166666667879e+01
flow[sink_29,sink_2] 6.7438984452125922e+01
flow[sink_2,sink_15] 5.1084817785459258e+01
flow[sink_29,innode_7] -1.6415021479353226e+02
flow[innode_4,sink_19] 4.0287211730703774e+01
flow[sink_19,innode_3] 7.2697187785535021e+01
flow[innode_4,innode_5] 6.5118309388164263e+01
flow[sink_27,innode_5] -6.5118309388164263e+01
flow[sink_27,sink_19] 48.7641427214976
flow[sink_10,sink_11] 3.2708333333333641e+01
flow[sink_10,innode_2] 0
flow[sink_10,innode_3] -7.2697187785535021e+01
flow[innode_6,sink_25] -9.0736455477988667e+00
flow[sink_11,innode_1] 1.6354166666666970e+01
flow[sink_19,innode_2] 0
flow[source_3,innode_4] 1.0540552111886804e+02
flow[source_2,innode_7] 1.6415021479353226e+02
flow[sink_3,innode_8] 1.5826711075237390e+02
pressure[innode_1] 7.5198028497868108e+01
pressure[innode_2] 7.5349729805471654e+01
pressure[innode_3] 7.9220132710101041e+01
pressure[innode_4] 81.01325
pressure[innode_5] 8.0968458193103729e+01
pressure[innode_6] 7.4268834638620675e+01
pressure[innode_7] 81.01325
pressure[innode_8] 8.0374892045685442e+01
pressure[source_1] 81.01325
pressure[source_2] 81.01325
pressure[source_3] 81.01325
pressure[sink_1] 4.1177907938418208e+01
pressure[sink_2] 7.4914569226318079e+01
pressure[sink_3] 8.0374892045685442e+01
pressure[sink_4] 4.7320621163464104e+01
pressure[sink_5] 4.3387711242378280e+01
pressure[sink_6] 4.3278985548805579e+01
pressure[sink_7] 4.2595724928549565e+01
pressure[sink_8] 4.3513665150108125e+01
pressure[sink_9] 5.0086074678841065e+01
pressure[sink_10] 7.5349729805471654e+01
pressure[sink_11] 7.5198028497868108e+01
pressure[sink_12] 1.01325
pressure[sink_13] 7.4218813147062690e+01
pressure[sink_14] 7.4231842259768172e+01
pressure[sink_15] 7.4747788555161051e+01
pressure[sink_16] 7.4176378663050428e+01
pressure[sink_17] 4.4747835540935313e+01
pressure[sink_18] 4.5918179833801155e+01
pressure[sink_19] 7.9381112400388631e+01
pressure[sink_20] 4.2374009726519837e+01
pressure[sink_21] 1.9436369361972852e+00
pressure[sink_22] 4.2241677080773215e+01
pressure[sink_23] 8.0210174034025655e+01
pressure[sink_24] 2.1536974431706848e+00
pressure[sink_25] 7.4268834638620675e+01
pressure[sink_26] 5.7959295043211910e+01
pressure[sink_27] 8.0428096550879815e+01
pressure[sink_28] 7.6327592538383470e+01
pressure[sink_29] 7.6622874812000660e+01
interdiction[source_1,sink_3] 0
interdiction[innode_1,sink_16] 0
interdiction[innode_6,sink_13] 0
interdiction[sink_13,sink_14] 0
interdiction[sink_14,sink_10] 0
interdiction[sink_25,sink_26] 0
interdiction[sink_26,sink_9] 0
interdiction[sink_9,sink_18] 0
interdiction[sink_26,sink_4] 0
interdiction[sink_4,sink_20] 1
interdiction[sink_18,sink_6] 0
interdiction[sink_25,innode_8] 0
interdiction[sink_6,sink_7] 0
interdiction[sink_6,sink_22] 0
interdiction[sink_7,sink_24] 0
interdiction[sink_22,sink_1] 0
interdiction[sink_24,sink_21] 0
interdiction[sink_21,sink_12] 0
interdiction[sink_7,sink_5] 0
interdiction[sink_5,sink_17] 0
interdiction[sink_17,sink_4] 0
interdiction[sink_17,sink_8] 0
interdiction[sink_3,sink_23] 0
interdiction[sink_8,sink_20] 0
interdiction[sink_25,sink_20] 1
interdiction[sink_25,sink_15] 0
interdiction[sink_15,sink_29] 0
interdiction[sink_29,sink_28] 0
interdiction[sink_29,sink_2] 0
interdiction[sink_2,sink_15] 0
interdiction[sink_29,innode_7] 0
interdiction[innode_4,sink_19] 0
interdiction[sink_19,innode_3] 0
interdiction[innode_4,innode_5] 0
interdiction[sink_27,innode_5] 0
interdiction[sink_27,sink_19] 0
interdiction[sink_10,sink_11] 0
interdiction[sink_10,innode_2] 0
interdiction[sink_10,innode_3] 0
interdiction[innode_6,sink_25] 0
interdiction[sink_11,innode_1] 0
interdiction[sink_19,innode_2] 1
interdiction[source_3,innode_4] 0
interdiction[source_2,innode_7] 0
interdiction[sink_3,innode_8] 0
WCcheckFlow[source_1,sink_3] 39
WCcheckFlow[innode_1,sink_16] 1
WCcheckFlow[innode_6,sink_13] 13
WCcheckFlow[sink_13,sink_14] 12
WCcheckFlow[sink_14,sink_10] 11
WCcheckFlow[sink_25,sink_26] 15
WCcheckFlow[sink_26,sink_9] 13
WCcheckFlow[sink_9,sink_18] 12
WCcheckFlow[sink_26,sink_4] 1
WCcheckFlow[sink_4,sink_20] 0
WCcheckFlow[sink_18,sink_6] 11
WCcheckFlow[sink_25,innode_8] -36
WCcheckFlow[sink_6,sink_7] 8
WCcheckFlow[sink_6,sink_22] 2
WCcheckFlow[sink_7,sink_24] 3
WCcheckFlow[sink_22,sink_1] 1
WCcheckFlow[sink_24,sink_21] 2
WCcheckFlow[sink_21,sink_12] 1
WCcheckFlow[sink_7,sink_5] 4
WCcheckFlow[sink_5,sink_17] 3
WCcheckFlow[sink_17,sink_4] 0
WCcheckFlow[sink_17,sink_8] 2
WCcheckFlow[sink_3,sink_23] 1
WCcheckFlow[sink_8,sink_20] 1
WCcheckFlow[sink_25,sink_20] 0
WCcheckFlow[sink_25,sink_15] 6
WCcheckFlow[sink_15,sink_29] 5
WCcheckFlow[sink_29,sink_28] 1
WCcheckFlow[sink_29,sink_2] 1
WCcheckFlow[sink_2,sink_15] 0
WCcheckFlow[sink_29,innode_7] 2
WCcheckFlow[innode_4,sink_19] -4
WCcheckFlow[sink_19,innode_3] -5
WCcheckFlow[innode_4,innode_5] 2
WCcheckFlow[sink_27,innode_5] -1
WCcheckFlow[sink_27,sink_19] 0
WCcheckFlow[sink_10,sink_11] 3
WCcheckFlow[sink_10,innode_2] 1
WCcheckFlow[sink_10,innode_3] 6
WCcheckFlow[innode_6,sink_25] -14
WCcheckFlow[sink_11,innode_1] 2
WCcheckFlow[sink_19,innode_2] 0
WCcheckFlow[source_3,innode_4] -1
WCcheckFlow[source_2,innode_7] -1
WCcheckFlow[sink_3,innode_8] 37
